(set-info :source |printed by MathSAT|)
(declare-fun call_voiture.bump () Bool)
(declare-fun meter () Bool)
(declare-fun call_voiture.toofast () Bool)
(declare-fun second () Bool)
(declare-fun time () Int)
(declare-fun move () Bool)
(declare-fun call_voiture.speed () Int)
(declare-fun call_voiture.second () Bool)
(declare-fun toofast () Bool)
(declare-fun env () Bool)
(declare-fun call_voiture.flby3 () Bool)
(declare-fun call_voiture.flby5 () Int)
(declare-fun call_voiture.flby () Bool)
(declare-fun bump () Bool)
(declare-fun param_m () Bool)
(declare-fun speed () Int)
(declare-fun call_voiture.ite2 () Int)
(declare-fun call_voiture.flby2 () Bool)
(declare-fun call_voiture.dist () Int)
(declare-fun call_Sofar.Sofar () Bool)
(declare-fun call_voiture.time () Int)
(declare-fun call_excludes2.excludes () Bool)
(declare-fun param_s () Bool)
(declare-fun stop () Bool)
(declare-fun call_voiture.move () Bool)
(declare-fun _OK_ () Bool)
(declare-fun call_voiture.meter () Bool)
(declare-fun call_voiture.flby4 () Int)
(declare-fun dist () Int)
(declare-fun call_voiture.stop () Bool)
(declare-fun call_voiture.ite3 () Int)
(declare-fun call_Sofar.flby () Bool)
(declare-fun call_voiture.flby6 () Int)
(define-fun .def_375 () Bool (= call_excludes2.excludes call_Sofar.flby))
(define-fun .def_373 () Bool (= call_voiture.flby6 0))
(define-fun .def_371 () Bool (= call_voiture.flby5 0))
(define-fun .def_369 () Bool (= call_voiture.flby4 0))
(define-fun .def_366 () Bool (not call_voiture.flby2))
(define-fun .def_365 () Bool (not call_voiture.flby))
(define-fun .def_367 () Bool (and .def_365 .def_366))
(define-fun .def_368 () Bool (and call_voiture.flby3 .def_367))
(define-fun .def_370 () Bool (and .def_368 .def_369))
(define-fun .def_372 () Bool (and .def_370 .def_371))
(define-fun .def_374 () Bool (and .def_372 .def_373))
(define-fun .def_376 () Bool (and .def_374 .def_375))
(define-fun .def_363 () Bool (= call_Sofar.Sofar call_Sofar.flby))
(define-fun .def_357 () Bool (and param_s param_m))
(define-fun .def_358 () Bool (not .def_357))
(define-fun .def_360 () Bool (= .def_358 call_excludes2.excludes))
(define-fun .def_353 () Bool (= call_voiture.meter call_voiture.flby))
(define-fun .def_350 () Bool (= call_voiture.second call_voiture.flby2))
(define-fun .def_346 () Bool (= call_voiture.move call_voiture.flby3))
(define-fun .def_342 () Bool (= call_voiture.ite3 0))
(define-fun .def_338 () Bool (not call_voiture.move))
(define-fun .def_339 () Bool (or call_voiture.second .def_338))
(define-fun .def_341 () Bool (not .def_339))
(define-fun .def_343 () Bool (or .def_341 .def_342))
(define-fun .def_337 () Bool (= call_voiture.ite2 call_voiture.ite3))
(define-fun .def_340 () Bool (or .def_337 .def_339))
(define-fun .def_344 () Bool (and .def_340 .def_343))
(define-fun .def_347 () Bool (and .def_344 .def_346))
(define-fun .def_333 () Bool (= call_voiture.time call_voiture.flby6))
(define-fun .def_330 () Bool (= call_voiture.speed call_voiture.flby5))
(define-fun .def_327 () Bool (= call_voiture.dist call_voiture.flby4))
(define-fun .def_323 () Bool (= call_voiture.dist 10))
(define-fun .def_324 () Bool (= call_voiture.bump .def_323))
(define-fun .def_320 () Bool (<= 4 call_voiture.time))
(define-fun .def_321 () Bool (= call_voiture.stop .def_320))
(define-fun .def_317 () Bool (<= 3 call_voiture.speed))
(define-fun .def_318 () Bool (= call_voiture.toofast .def_317))
(define-fun .def_315 () Bool (= env call_Sofar.Sofar))
(define-fun .def_312 () Bool (= meter call_voiture.meter))
(define-fun .def_308 () Bool (= second call_voiture.second))
(define-fun .def_304 () Bool (= move call_voiture.move))
(define-fun .def_300 () Bool (= time call_voiture.time))
(define-fun .def_296 () Bool (= speed call_voiture.speed))
(define-fun .def_293 () Bool (= dist call_voiture.dist))
(define-fun .def_289 () Bool (= bump call_voiture.bump))
(define-fun .def_285 () Bool (= stop call_voiture.stop))
(define-fun .def_281 () Bool (= toofast call_voiture.toofast))
(define-fun .def_275 () Bool (<= 4 speed))
(define-fun .def_276 () Bool (not .def_275))
(define-fun .def_273 () Bool (not env))
(define-fun .def_277 () Bool (or .def_273 .def_276))
(define-fun .def_278 () Bool (= _OK_ .def_277))
(define-fun .def_282 () Bool (and .def_278 .def_281))
(define-fun .def_286 () Bool (and .def_282 .def_285))
(define-fun .def_290 () Bool (and .def_286 .def_289))
(define-fun .def_294 () Bool (and .def_290 .def_293))
(define-fun .def_297 () Bool (and .def_294 .def_296))
(define-fun .def_301 () Bool (and .def_297 .def_300))
(define-fun .def_305 () Bool (and .def_301 .def_304))
(define-fun .def_309 () Bool (and .def_305 .def_308))
(define-fun .def_313 () Bool (and .def_309 .def_312))
(define-fun .def_316 () Bool (and .def_313 .def_315))
(define-fun .def_319 () Bool (and .def_316 .def_318))
(define-fun .def_322 () Bool (and .def_319 .def_321))
(define-fun .def_325 () Bool (and .def_322 .def_324))
(define-fun .def_328 () Bool (and .def_325 .def_327))
(define-fun .def_331 () Bool (and .def_328 .def_330))
(define-fun .def_334 () Bool (and .def_331 .def_333))
(define-fun .def_348 () Bool (and .def_334 .def_347))
(define-fun .def_351 () Bool (and .def_348 .def_350))
(define-fun .def_354 () Bool (and .def_351 .def_353))
(define-fun .def_361 () Bool (and .def_354 .def_360))
(define-fun .def_364 () Bool (and .def_361 .def_363))
(define-fun .def_377 () Bool (and .def_364 .def_376))
(assert .def_377)
